p cnf 12 50 
2 -8 12 0
-7 -9 -5 0
-2 3 4 0
12 4 8 0
-12 6 -11 0
-12 -8 11 0
10 -8 -11 0
-7 -11 -6 0
8 -10 4 0
-5 -6 8 0
5 -11 -1 0
-9 -1 -12 0
12 -6 -10 0
9 -4 -1 0
-10 -2 -7 0
11 -6 1 0
9 11 -2 0
-11 3 4 0
5 -3 8 0
12 -9 5 0
-10 -5 11 0
3 -9 -2 0
-9 -4 5 0
3 -7 12 0
-6 1 -7 0
-2 6 -11 0
8 -5 -10 0
-9 12 -5 0
6 11 -5 0
12 6 -10 0
-2 8 6 0
12 1 -4 0
12 -8 3 0
-2 8 -5 0
6 -9 11 0
2 -10 4 0
11 8 9 0
-9 11 -4 0
11 6 -1 0
-8 -11 6 0
8 10 -12 0
-10 7 4 0
7 12 11 0
6 -10 9 0
11 -4 7 0
-8 -11 -4 0
-11 -1 2 0
11 -5 3 0
10 5 7 0
3 8 4 0
